136921
1,87,44,66,59,10,27,28,58,76,24,102,74,14,47,61,4,103,35,75,32,63,51,100,82,72,45,25,86,46,77,6,69,98,106,42,81,19,99,68,50,26,9,34,83,57,80,89,93,12,23,92,8,97,55,29,30,5,52,65,31,13,88,40,56,20,16,64,90,17,21,22,62,2,33,84,53,7,18,49,37,39,73,48,85,11,41,67,54,36,71,95,104,38,105,101,70,94,3,78,96,60,15,91,79,43,1